N = 30;
M = 68;
Edge_Start = [1, 2, 3, 3, 4, 5, 6, 7, 8, 9, 9, 10, 11, 12, 13, 13, 14, 15, 16, 16, 17, 18, 18, 20, 20, 21, 22, 22, 24, 25, 26, 27, 28, 29, 2, 3, 4, 10, 5, 12, 7, 14, 9, 10, 17, 11, 12, 13, 14, 21, 15, 23, 17, 24, 18, 19, 26, 21, 28, 22, 23, 30, 25, 26, 27, 28, 29, 30];
Edge_End = [2, 3, 4, 10, 5, 12, 7, 14, 9, 10, 17, 11, 12, 13, 14, 21, 15, 23, 17, 24, 18, 19, 26, 21, 28, 22, 23, 30, 25, 26, 27, 28, 29, 30, 1, 2, 3, 3, 4, 5, 6, 7, 8, 9, 9, 10, 11, 12, 13, 13, 14, 15, 16, 16, 17, 18, 18, 20, 20, 21, 22, 22, 24, 25, 26, 27, 28, 29];
L = [10, 1, 10, 19, 12, 4, 5, 4, 7, 12, 10, 3, 7, 16, 7, 18, 2, 11, 7, 14, 5, 8, 6, 13, 16, 16, 3, 14, 1, 10, 7, 6, 3, 16, 10, 1, 10, 19, 12, 4, 5, 4, 7, 12, 10, 3, 7, 16, 7, 18, 2, 11, 7, 14, 5, 8, 6, 13, 16, 16, 3, 14, 1, 10, 7, 6, 3, 16];
T = [11, 1, 10, 17, 15, 4, 5, 3, 6, 17, 10, 1, 12, 15, 6, 17, 6, 4, 6, 12, 2, 1, 3, 11, 16, 17, 10, 10, 1, 5, 1, 6, 12, 18, 11, 1, 10, 17, 15, 4, 5, 3, 6, 17, 10, 1, 12, 15, 6, 17, 6, 4, 6, 12, 2, 1, 3, 11, 16, 17, 10, 10, 1, 5, 1, 6, 12, 18];
Lower_Bound = [0, 11, 12, 22, 37, 70, 65, 52, 46, 29, 30, 41, 56, 62, 68, 62, 56, 58, 59, 84, 73, 82, 72, 67, 66, 61, 62, 68, 80, 92];
Upper_Bound = [0, 11, 12, 22, 37, 70, 65, 52, 46, 29, 30, 41, 56, 62, 68, 62, 56, 58, 59, 84, 73, 82, 72, 67, 66, 61, 62, 68, 80, 92];
Start = 1;
End = 30;
Time = 92;
